1670215
20, 65, 45, 27, 17, 58, 9, 2, 48, 63, 16, 59, 50, 28, 36, 15, 8, 68, 35, 51, 39, 62, 53, 37, 44, 14, 18, 10, 57, 33, 52, 22, 31, 21, 38, 7, 67, 43, 46, 55, 34, 26, 66, 11, 64, 41, 30, 25, 6, 29, 60, 23, 49, 19, 5, 40, 56, 32, 12, 42, 3, 24, 61, 1, 54, 47, 13, 4
